(declare-fun bvlambda_11_ ()Bool         )
(declare-fun a196 () (Array (_ BitVec 1) (_ BitVec 12)))
(assert
(let (($e42 (_ bv0    12)))
(let (($e374 (store a196 true               $e42 )))
(
                 extract(select $e374(not bvlambda_11_))
                                                                                                                                                                                                                                                                                                                                                                                                                                                                                                                                                                                                                                                                                                                                                                                                                                                                                                                                                                                                                                                                                                                                                                                                                                                                                                                                                                                                                                                                                                                                                                                                                                                                                                                                                                                                                                                                                                                                                                                                                                                                                                                                                                                                                                                                                                                                                                                                                                                                                                                                                                                                                                                                                                                                                                                                                                                                                                                                                                                                                                                                                                                                                                                                                                                                                                                                                                                                                                                         ) )                                                                                                                                                                                                                                                              )                                         )
